PARAMETER_FILE = even/LKH_uncomplete_graph/x5/nei/par/random95.par
PROBLEM_FILE = even/LKH_uncomplete_graph/x5/nei/mat/random95.tsp
Successes/Runs = 0/10
Cost.min = 780, Cost.avg = 780.00, Cost.max = 780
Gap.min = 0.0000%, Gap.avg = 0.0000%, Gap.max = 0.0000%
Trials.min = 1000, Trials.avg = 1000.0, Trials.max = 1000
Time.min = 0.19 sec., Time.avg = 0.20 sec., Time.max = 0.23 sec.
Time.total = 2.08 sec.
请按任意键继续. . . 
